QPLIB_3631
LGQ
minimize
893 # number of variables
235 # number of constraints
0.0 # default value for linear coefficients in objective
25 # number of non-default linear coefficients in objective
1 7.5
2 13.05038314
3 13.05038314
4 13.05038314
5 13.05038314
6 10.68000468
7 10.68000468
8 10.68000468
9 10.68000468
10 7.5
11 7.5
12 7.5
13 7.5
14 18.11422093
15 18.11422093
16 18.11422093
17 18.11422093
18 18.11422093
19 18.11422093
20 18.11422093
21 18.11422093
22 13.34634782
23 13.34634782
24 13.34634782
25 13.34634782
0.0 # objective constant
86 # number of quadratic terms in all constraints
211 892874785 50 -2.0
211 892874785 50 2.0
212 32681 1 -1.1493915422
212 32681 1 -0.5746957712
212 32681 1 1.5325220564
212 32681 1 1.1493915422
212 32681 1 0.5746957712
212 32681 1 -1.5325220564
213 1651076122 1 1.1493915422
213 1651076122 1 -0.5746957712
213 1651076122 1 1.5325220564
213 1651076122 1 -1.1493915422
213 1651076122 1 0.5746957712
213 1651076122 1 -1.5325220564
214 1852403556 1 -1.1493915422
214 1852403556 1 0.5746957712
214 1852403556 1 1.5325220564
214 1852403556 1 1.1493915422
214 1852403556 1 -0.5746957712
214 1852403556 1 -1.5325220564
215 1768711012 50 1.1493915422
215 1768711012 50 0.5746957712
215 1768711012 50 1.5325220564
215 1768711012 50 -1.1493915422
215 1768711012 50 -0.5746957712
215 1768711012 50 -1.5325220564
216 775173731 1 -0.7022468832
216 775173731 1 1.8726583552
216 775173731 1 0.7022468832
216 775173731 1 -1.8726583552
217 1663070068 1651076122 0.7022468832
217 1663070068 1651076122 1.8726583552
217 1663070068 1651076122 -0.7022468832
217 1663070068 1651076122 -1.8726583552
218 1852403556 824210800 -0.7022468832
218 1852403556 824210800 1.8726583552
218 1852403556 824210800 0.7022468832
218 1852403556 824210800 -1.8726583552
219 1768711012 892874785 0.7022468832
219 1768711012 892874785 1.8726583552
219 1768711012 892874785 -0.7022468832
219 1768711012 892874785 -1.8726583552
220 775173731 32681 2.0
220 775173731 32681 -2.0
221 1763733364 1 2.0
221 1763733364 1 -2.0
222 824209265 1 -2.0
222 824209265 1 2.0
223 12321 50 2.0
223 12321 50 -2.0
224 1 1 0.6900655594
224 1 1 1.5181442306
224 1 1 1.104104895
225 1651076122 1 0.6900655594
225 1651076122 1 -1.5181442306
225 1651076122 1 1.104104895
226 1852403556 1 -0.6900655594
226 1852403556 1 1.5181442306
226 1852403556 1 1.104104895
227 1768711012 50 -0.6900655594
227 1768711012 50 -1.5181442306
227 1768711012 50 1.104104895
228 775173731 1 1.5181442306
228 775173731 1 -0.6900655594
228 775173731 1 1.104104895
229 1763733364 1651076122 -1.5181442306
229 1763733364 1651076122 -0.6900655594
229 1763733364 1651076122 1.104104895
230 1852403556 824209265 1.5181442306
230 1852403556 824209265 0.6900655594
230 1852403556 824209265 1.104104895
231 1768711012 12321 -1.5181442306
231 1768711012 12321 0.6900655594
231 1768711012 12321 1.104104895
232 775173731 1 0.9365858116
232 775173731 1 0.9365858116
232 775173731 1 1.4985372986
233 1864396660 1 0.9365858116
233 1864396660 1 -0.9365858116
233 1864396660 1 1.4985372986
234 824205172 1 -0.9365858116
234 824205172 1 -0.9365858116
234 824205172 1 1.4985372986
235 12321 50 -0.9365858116
235 12321 50 0.9365858116
235 12321 50 1.4985372986
1920 # number of linear terms in all constraints
1 1 -133.3333333
1 44 1.0
2 2 -76.62610282
2 45 1.0
3 3 -76.62610282
3 46 1.0
4 4 -76.62610282
4 47 1.0
5 5 -76.62610282
5 48 1.0
6 6 -93.63291776
6 49 1.0
7 7 -93.63291776
7 50 1.0
8 8 -93.63291776
8 51 1.0
9 9 -93.63291776
9 52 1.0
10 10 -133.3333333
10 53 1.0
11 11 -133.3333333
11 54 1.0
12 12 -133.3333333
12 55 1.0
13 13 -133.3333333
13 56 1.0
14 14 -55.20524475
14 57 1.0
15 15 -55.20524475
15 58 1.0
16 16 -55.20524475
16 59 1.0
17 17 -55.20524475
17 60 1.0
18 18 -55.20524475
18 61 1.0
19 19 -55.20524475
19 62 1.0
20 20 -55.20524475
20 63 1.0
21 21 -55.20524475
21 64 1.0
22 22 -74.92686493
22 65 1.0
23 23 -74.92686493
23 66 1.0
24 24 -74.92686493
24 67 1.0
25 25 -74.92686493
25 68 1.0
26 1 -40.0
26 69 1.0
27 2 -40.0
27 70 1.0
28 3 -40.0
28 71 1.0
29 4 -40.0
29 72 1.0
30 5 -40.0
30 73 1.0
31 6 -40.0
31 74 1.0
32 7 -40.0
32 75 1.0
33 8 -40.0
33 76 1.0
34 9 -40.0
34 77 1.0
35 10 -40.0
35 78 1.0
36 11 -40.0
36 79 1.0
37 12 -40.0
37 80 1.0
38 13 -40.0
38 81 1.0
39 14 -40.0
39 82 1.0
40 15 -40.0
40 83 1.0
41 16 -40.0
41 84 1.0
42 17 -40.0
42 85 1.0
43 18 -40.0
43 86 1.0
44 19 -40.0
44 87 1.0
45 20 -40.0
45 88 1.0
46 21 -40.0
46 89 1.0
47 22 -40.0
47 90 1.0
48 23 -40.0
48 91 1.0
49 24 -40.0
49 92 1.0
50 25 -40.0
50 93 1.0
51 1 -40.0
51 94 1.0
52 2 -40.0
52 95 1.0
53 3 -40.0
53 96 1.0
54 4 -40.0
54 97 1.0
55 5 -40.0
55 98 1.0
56 6 -40.0
56 99 1.0
57 7 -40.0
57 100 1.0
58 8 -40.0
58 101 1.0
59 9 -40.0
59 102 1.0
60 10 -40.0
60 103 1.0
61 11 -40.0
61 104 1.0
62 12 -40.0
62 105 1.0
63 13 -40.0
63 106 1.0
64 14 -40.0
64 107 1.0
65 15 -40.0
65 108 1.0
66 16 -40.0
66 109 1.0
67 17 -40.0
67 110 1.0
68 18 -40.0
68 111 1.0
69 19 -40.0
69 112 1.0
70 20 -40.0
70 113 1.0
71 21 -40.0
71 114 1.0
72 22 -40.0
72 115 1.0
73 23 -40.0
73 116 1.0
74 24 -40.0
74 117 1.0
75 25 -40.0
75 118 1.0
76 119 -1.0
76 120 -0.5746957711
76 121 -0.5746957711
77 120 -0.2873478856
77 121 0.2873478856
77 122 -0.3511234416
77 123 0.3511234416
78 120 0.7662610282
78 121 0.7662610282
78 122 0.9363291776
78 123 0.9363291776
79 119 1.0
79 124 0.5746957711
79 125 0.5746957711
80 124 -0.2873478856
80 125 0.2873478856
80 126 -0.3511234416
80 127 0.3511234416
81 124 0.7662610282
81 125 0.7662610282
81 126 0.9363291776
81 127 0.9363291776
82 124 -0.5746957711
82 128 -1.0
82 129 0.3450327797
82 130 -0.7590721153
82 131 0.4682929058
83 122 0.3511234416
83 124 0.2873478856
83 129 0.7590721153
83 130 -0.3450327797
83 131 -0.4682929058
83 132 1.0
84 122 -0.9363291776
84 124 -0.7662610282
84 129 0.5520524475
84 130 0.5520524475
84 131 0.7492686493
85 120 0.5746957711
85 128 1.0
85 133 -0.3450327797
85 134 0.7590721153
85 135 -0.4682929058
86 120 0.2873478856
86 126 0.3511234416
86 133 0.7590721153
86 134 -0.3450327797
86 135 -0.4682929058
86 136 1.0
87 120 -0.7662610282
87 126 -0.9363291776
87 133 0.5520524475
87 134 0.5520524475
87 135 0.7492686493
88 121 0.5746957711
88 137 1.0
88 138 -0.3450327797
88 139 0.7590721153
88 140 -0.4682929058
89 121 -0.2873478856
89 127 -0.3511234416
89 136 -1.0
89 138 -0.7590721153
89 139 0.3450327797
89 140 0.4682929058
90 121 -0.7662610282
90 127 -0.9363291776
90 138 0.5520524475
90 139 0.5520524475
90 140 0.7492686493
91 125 -0.5746957711
91 137 -1.0
91 141 0.3450327797
91 142 -0.7590721153
91 143 0.4682929058
92 123 -0.3511234416
92 125 -0.2873478856
92 132 -1.0
92 141 -0.7590721153
92 142 0.3450327797
92 143 0.4682929058
93 123 -0.9363291776
93 125 -0.7662610282
93 141 0.5520524475
93 142 0.5520524475
93 143 0.7492686493
94 69 -1.0
94 119 1.0
95 94 -1.0
95 119 -1.0
96 70 -1.0
96 120 1.0
97 95 -1.0
97 120 -1.0
98 71 -1.0
98 124 1.0
99 96 -1.0
99 124 -1.0
100 72 -1.0
100 121 1.0
101 97 -1.0
101 121 -1.0
102 73 -1.0
102 125 1.0
103 98 -1.0
103 125 -1.0
104 74 -1.0
104 126 1.0
105 99 -1.0
105 126 -1.0
106 75 -1.0
106 127 1.0
107 100 -1.0
107 127 -1.0
108 76 -1.0
108 122 1.0
109 101 -1.0
109 122 -1.0
110 77 -1.0
110 123 1.0
111 102 -1.0
111 123 -1.0
112 78 -1.0
112 132 1.0
113 103 -1.0
113 132 -1.0
114 79 -1.0
114 136 1.0
115 104 -1.0
115 136 -1.0
116 80 -1.0
116 128 1.0
117 105 -1.0
117 128 -1.0
118 81 -1.0
118 137 1.0
119 106 -1.0
119 137 -1.0
120 82 -1.0
120 129 1.0
121 107 -1.0
121 129 -1.0
122 83 -1.0
122 141 1.0
123 108 -1.0
123 141 -1.0
124 84 -1.0
124 133 1.0
125 109 -1.0
125 133 -1.0
126 85 -1.0
126 138 1.0
127 110 -1.0
127 138 -1.0
128 86 -1.0
128 134 1.0
129 111 -1.0
129 134 -1.0
130 87 -1.0
130 130 1.0
131 112 -1.0
131 130 -1.0
132 88 -1.0
132 139 1.0
133 113 -1.0
133 139 -1.0
134 89 -1.0
134 142 1.0
135 114 -1.0
135 142 -1.0
136 90 -1.0
136 143 1.0
137 115 -1.0
137 143 -1.0
138 91 -1.0
138 131 1.0
139 116 -1.0
139 131 -1.0
140 92 -1.0
140 135 1.0
141 117 -1.0
141 135 -1.0
142 93 -1.0
142 140 1.0
143 118 -1.0
143 140 -1.0
144 1 -1.0
144 144 0.1
144 145 0.2
144 146 0.3
144 147 0.4
144 148 0.5
144 149 0.6
144 150 0.7
144 151 0.8
144 152 0.9
144 153 1.0
144 154 1.1
144 155 1.2
144 156 1.3
144 157 1.4
144 158 1.5
144 159 1.6
144 160 1.7
144 161 1.8
144 162 1.9
144 163 2.0
144 164 2.1
144 165 2.2
144 166 2.3
144 167 2.4
144 168 2.5
144 169 2.6
144 170 2.8
144 171 3.0
144 172 3.2
144 173 3.4
145 2 -1.0
145 174 0.1
145 175 0.2
145 176 0.3
145 177 0.4
145 178 0.5
145 179 0.6
145 180 0.7
145 181 0.8
145 182 0.9
145 183 1.0
145 184 1.1
145 185 1.2
145 186 1.3
145 187 1.4
145 188 1.5
145 189 1.6
145 190 1.7
145 191 1.8
145 192 1.9
145 193 2.0
145 194 2.1
145 195 2.2
145 196 2.3
145 197 2.4
145 198 2.5
145 199 2.6
145 200 2.8
145 201 3.0
145 202 3.2
145 203 3.4
146 3 -1.0
146 204 0.1
146 205 0.2
146 206 0.3
146 207 0.4
146 208 0.5
146 209 0.6
146 210 0.7
146 211 0.8
146 212 0.9
146 213 1.0
146 214 1.1
146 215 1.2
146 216 1.3
146 217 1.4
146 218 1.5
146 219 1.6
146 220 1.7
146 221 1.8
146 222 1.9
146 223 2.0
146 224 2.1
146 225 2.2
146 226 2.3
146 227 2.4
146 228 2.5
146 229 2.6
146 230 2.8
146 231 3.0
146 232 3.2
146 233 3.4
147 4 -1.0
147 234 0.1
147 235 0.2
147 236 0.3
147 237 0.4
147 238 0.5
147 239 0.6
147 240 0.7
147 241 0.8
147 242 0.9
147 243 1.0
147 244 1.1
147 245 1.2
147 246 1.3
147 247 1.4
147 248 1.5
147 249 1.6
147 250 1.7
147 251 1.8
147 252 1.9
147 253 2.0
147 254 2.1
147 255 2.2
147 256 2.3
147 257 2.4
147 258 2.5
147 259 2.6
147 260 2.8
147 261 3.0
147 262 3.2
147 263 3.4
148 5 -1.0
148 264 0.1
148 265 0.2
148 266 0.3
148 267 0.4
148 268 0.5
148 269 0.6
148 270 0.7
148 271 0.8
148 272 0.9
148 273 1.0
148 274 1.1
148 275 1.2
148 276 1.3
148 277 1.4
148 278 1.5
148 279 1.6
148 280 1.7
148 281 1.8
148 282 1.9
148 283 2.0
148 284 2.1
148 285 2.2
148 286 2.3
148 287 2.4
148 288 2.5
148 289 2.6
148 290 2.8
148 291 3.0
148 292 3.2
148 293 3.4
149 6 -1.0
149 294 0.1
149 295 0.2
149 296 0.3
149 297 0.4
149 298 0.5
149 299 0.6
149 300 0.7
149 301 0.8
149 302 0.9
149 303 1.0
149 304 1.1
149 305 1.2
149 306 1.3
149 307 1.4
149 308 1.5
149 309 1.6
149 310 1.7
149 311 1.8
149 312 1.9
149 313 2.0
149 314 2.1
149 315 2.2
149 316 2.3
149 317 2.4
149 318 2.5
149 319 2.6
149 320 2.8
149 321 3.0
149 322 3.2
149 323 3.4
150 7 -1.0
150 324 0.1
150 325 0.2
150 326 0.3
150 327 0.4
150 328 0.5
150 329 0.6
150 330 0.7
150 331 0.8
150 332 0.9
150 333 1.0
150 334 1.1
150 335 1.2
150 336 1.3
150 337 1.4
150 338 1.5
150 339 1.6
150 340 1.7
150 341 1.8
150 342 1.9
150 343 2.0
150 344 2.1
150 345 2.2
150 346 2.3
150 347 2.4
150 348 2.5
150 349 2.6
150 350 2.8
150 351 3.0
150 352 3.2
150 353 3.4
151 8 -1.0
151 354 0.1
151 355 0.2
151 356 0.3
151 357 0.4
151 358 0.5
151 359 0.6
151 360 0.7
151 361 0.8
151 362 0.9
151 363 1.0
151 364 1.1
151 365 1.2
151 366 1.3
151 367 1.4
151 368 1.5
151 369 1.6
151 370 1.7
151 371 1.8
151 372 1.9
151 373 2.0
151 374 2.1
151 375 2.2
151 376 2.3
151 377 2.4
151 378 2.5
151 379 2.6
151 380 2.8
151 381 3.0
151 382 3.2
151 383 3.4
152 9 -1.0
152 384 0.1
152 385 0.2
152 386 0.3
152 387 0.4
152 388 0.5
152 389 0.6
152 390 0.7
152 391 0.8
152 392 0.9
152 393 1.0
152 394 1.1
152 395 1.2
152 396 1.3
152 397 1.4
152 398 1.5
152 399 1.6
152 400 1.7
152 401 1.8
152 402 1.9
152 403 2.0
152 404 2.1
152 405 2.2
152 406 2.3
152 407 2.4
152 408 2.5
152 409 2.6
152 410 2.8
152 411 3.0
152 412 3.2
152 413 3.4
153 10 -1.0
153 414 0.1
153 415 0.2
153 416 0.3
153 417 0.4
153 418 0.5
153 419 0.6
153 420 0.7
153 421 0.8
153 422 0.9
153 423 1.0
153 424 1.1
153 425 1.2
153 426 1.3
153 427 1.4
153 428 1.5
153 429 1.6
153 430 1.7
153 431 1.8
153 432 1.9
153 433 2.0
153 434 2.1
153 435 2.2
153 436 2.3
153 437 2.4
153 438 2.5
153 439 2.6
153 440 2.8
153 441 3.0
153 442 3.2
153 443 3.4
154 11 -1.0
154 444 0.1
154 445 0.2
154 446 0.3
154 447 0.4
154 448 0.5
154 449 0.6
154 450 0.7
154 451 0.8
154 452 0.9
154 453 1.0
154 454 1.1
154 455 1.2
154 456 1.3
154 457 1.4
154 458 1.5
154 459 1.6
154 460 1.7
154 461 1.8
154 462 1.9
154 463 2.0
154 464 2.1
154 465 2.2
154 466 2.3
154 467 2.4
154 468 2.5
154 469 2.6
154 470 2.8
154 471 3.0
154 472 3.2
154 473 3.4
155 12 -1.0
155 474 0.1
155 475 0.2
155 476 0.3
155 477 0.4
155 478 0.5
155 479 0.6
155 480 0.7
155 481 0.8
155 482 0.9
155 483 1.0
155 484 1.1
155 485 1.2
155 486 1.3
155 487 1.4
155 488 1.5
155 489 1.6
155 490 1.7
155 491 1.8
155 492 1.9
155 493 2.0
155 494 2.1
155 495 2.2
155 496 2.3
155 497 2.4
155 498 2.5
155 499 2.6
155 500 2.8
155 501 3.0
155 502 3.2
155 503 3.4
156 13 -1.0
156 504 0.1
156 505 0.2
156 506 0.3
156 507 0.4
156 508 0.5
156 509 0.6
156 510 0.7
156 511 0.8
156 512 0.9
156 513 1.0
156 514 1.1
156 515 1.2
156 516 1.3
156 517 1.4
156 518 1.5
156 519 1.6
156 520 1.7
156 521 1.8
156 522 1.9
156 523 2.0
156 524 2.1
156 525 2.2
156 526 2.3
156 527 2.4
156 528 2.5
156 529 2.6
156 530 2.8
156 531 3.0
156 532 3.2
156 533 3.4
157 14 -1.0
157 534 0.1
157 535 0.2
157 536 0.3
157 537 0.4
157 538 0.5
157 539 0.6
157 540 0.7
157 541 0.8
157 542 0.9
157 543 1.0
157 544 1.1
157 545 1.2
157 546 1.3
157 547 1.4
157 548 1.5
157 549 1.6
157 550 1.7
157 551 1.8
157 552 1.9
157 553 2.0
157 554 2.1
157 555 2.2
157 556 2.3
157 557 2.4
157 558 2.5
157 559 2.6
157 560 2.8
157 561 3.0
157 562 3.2
157 563 3.4
158 15 -1.0
158 564 0.1
158 565 0.2
158 566 0.3
158 567 0.4
158 568 0.5
158 569 0.6
158 570 0.7
158 571 0.8
158 572 0.9
158 573 1.0
158 574 1.1
158 575 1.2
158 576 1.3
158 577 1.4
158 578 1.5
158 579 1.6
158 580 1.7
158 581 1.8
158 582 1.9
158 583 2.0
158 584 2.1
158 585 2.2
158 586 2.3
158 587 2.4
158 588 2.5
158 589 2.6
158 590 2.8
158 591 3.0
158 592 3.2
158 593 3.4
159 16 -1.0
159 594 0.1
159 595 0.2
159 596 0.3
159 597 0.4
159 598 0.5
159 599 0.6
159 600 0.7
159 601 0.8
159 602 0.9
159 603 1.0
159 604 1.1
159 605 1.2
159 606 1.3
159 607 1.4
159 608 1.5
159 609 1.6
159 610 1.7
159 611 1.8
159 612 1.9
159 613 2.0
159 614 2.1
159 615 2.2
159 616 2.3
159 617 2.4
159 618 2.5
159 619 2.6
159 620 2.8
159 621 3.0
159 622 3.2
159 623 3.4
160 17 -1.0
160 624 0.1
160 625 0.2
160 626 0.3
160 627 0.4
160 628 0.5
160 629 0.6
160 630 0.7
160 631 0.8
160 632 0.9
160 633 1.0
160 634 1.1
160 635 1.2
160 636 1.3
160 637 1.4
160 638 1.5
160 639 1.6
160 640 1.7
160 641 1.8
160 642 1.9
160 643 2.0
160 644 2.1
160 645 2.2
160 646 2.3
160 647 2.4
160 648 2.5
160 649 2.6
160 650 2.8
160 651 3.0
160 652 3.2
160 653 3.4
161 18 -1.0
161 654 0.1
161 655 0.2
161 656 0.3
161 657 0.4
161 658 0.5
161 659 0.6
161 660 0.7
161 661 0.8
161 662 0.9
161 663 1.0
161 664 1.1
161 665 1.2
161 666 1.3
161 667 1.4
161 668 1.5
161 669 1.6
161 670 1.7
161 671 1.8
161 672 1.9
161 673 2.0
161 674 2.1
161 675 2.2
161 676 2.3
161 677 2.4
161 678 2.5
161 679 2.6
161 680 2.8
161 681 3.0
161 682 3.2
161 683 3.4
162 19 -1.0
162 684 0.1
162 685 0.2
162 686 0.3
162 687 0.4
162 688 0.5
162 689 0.6
162 690 0.7
162 691 0.8
162 692 0.9
162 693 1.0
162 694 1.1
162 695 1.2
162 696 1.3
162 697 1.4
162 698 1.5
162 699 1.6
162 700 1.7
162 701 1.8
162 702 1.9
162 703 2.0
162 704 2.1
162 705 2.2
162 706 2.3
162 707 2.4
162 708 2.5
162 709 2.6
162 710 2.8
162 711 3.0
162 712 3.2
162 713 3.4
163 20 -1.0
163 714 0.1
163 715 0.2
163 716 0.3
163 717 0.4
163 718 0.5
163 719 0.6
163 720 0.7
163 721 0.8
163 722 0.9
163 723 1.0
163 724 1.1
163 725 1.2
163 726 1.3
163 727 1.4
163 728 1.5
163 729 1.6
163 730 1.7
163 731 1.8
163 732 1.9
163 733 2.0
163 734 2.1
163 735 2.2
163 736 2.3
163 737 2.4
163 738 2.5
163 739 2.6
163 740 2.8
163 741 3.0
163 742 3.2
163 743 3.4
164 21 -1.0
164 744 0.1
164 745 0.2
164 746 0.3
164 747 0.4
164 748 0.5
164 749 0.6
164 750 0.7
164 751 0.8
164 752 0.9
164 753 1.0
164 754 1.1
164 755 1.2
164 756 1.3
164 757 1.4
164 758 1.5
164 759 1.6
164 760 1.7
164 761 1.8
164 762 1.9
164 763 2.0
164 764 2.1
164 765 2.2
164 766 2.3
164 767 2.4
164 768 2.5
164 769 2.6
164 770 2.8
164 771 3.0
164 772 3.2
164 773 3.4
165 22 -1.0
165 774 0.1
165 775 0.2
165 776 0.3
165 777 0.4
165 778 0.5
165 779 0.6
165 780 0.7
165 781 0.8
165 782 0.9
165 783 1.0
165 784 1.1
165 785 1.2
165 786 1.3
165 787 1.4
165 788 1.5
165 789 1.6
165 790 1.7
165 791 1.8
165 792 1.9
165 793 2.0
165 794 2.1
165 795 2.2
165 796 2.3
165 797 2.4
165 798 2.5
165 799 2.6
165 800 2.8
165 801 3.0
165 802 3.2
165 803 3.4
166 23 -1.0
166 804 0.1
166 805 0.2
166 806 0.3
166 807 0.4
166 808 0.5
166 809 0.6
166 810 0.7
166 811 0.8
166 812 0.9
166 813 1.0
166 814 1.1
166 815 1.2
166 816 1.3
166 817 1.4
166 818 1.5
166 819 1.6
166 820 1.7
166 821 1.8
166 822 1.9
166 823 2.0
166 824 2.1
166 825 2.2
166 826 2.3
166 827 2.4
166 828 2.5
166 829 2.6
166 830 2.8
166 831 3.0
166 832 3.2
166 833 3.4
167 24 -1.0
167 834 0.1
167 835 0.2
167 836 0.3
167 837 0.4
167 838 0.5
167 839 0.6
167 840 0.7
167 841 0.8
167 842 0.9
167 843 1.0
167 844 1.1
167 845 1.2
167 846 1.3
167 847 1.4
167 848 1.5
167 849 1.6
167 850 1.7
167 851 1.8
167 852 1.9
167 853 2.0
167 854 2.1
167 855 2.2
167 856 2.3
167 857 2.4
167 858 2.5
167 859 2.6
167 860 2.8
167 861 3.0
167 862 3.2
167 863 3.4
168 25 -1.0
168 864 0.1
168 865 0.2
168 866 0.3
168 867 0.4
168 868 0.5
168 869 0.6
168 870 0.7
168 871 0.8
168 872 0.9
168 873 1.0
168 874 1.1
168 875 1.2
168 876 1.3
168 877 1.4
168 878 1.5
168 879 1.6
168 880 1.7
168 881 1.8
168 882 1.9
168 883 2.0
168 884 2.1
168 885 2.2
168 886 2.3
168 887 2.4
168 888 2.5
168 889 2.6
168 890 2.8
168 891 3.0
168 892 3.2
168 893 3.4
169 144 1.0
169 145 1.0
169 146 1.0
169 147 1.0
169 148 1.0
169 149 1.0
169 150 1.0
169 151 1.0
169 152 1.0
169 153 1.0
169 154 1.0
169 155 1.0
169 156 1.0
169 157 1.0
169 158 1.0
169 159 1.0
169 160 1.0
169 161 1.0
169 162 1.0
169 163 1.0
169 164 1.0
169 165 1.0
169 166 1.0
169 167 1.0
169 168 1.0
169 169 1.0
169 170 1.0
169 171 1.0
169 172 1.0
169 173 1.0
170 174 1.0
170 175 1.0
170 176 1.0
170 177 1.0
170 178 1.0
170 179 1.0
170 180 1.0
170 181 1.0
170 182 1.0
170 183 1.0
170 184 1.0
170 185 1.0
170 186 1.0
170 187 1.0
170 188 1.0
170 189 1.0
170 190 1.0
170 191 1.0
170 192 1.0
170 193 1.0
170 194 1.0
170 195 1.0
170 196 1.0
170 197 1.0
170 198 1.0
170 199 1.0
170 200 1.0
170 201 1.0
170 202 1.0
170 203 1.0
171 204 1.0
171 205 1.0
171 206 1.0
171 207 1.0
171 208 1.0
171 209 1.0
171 210 1.0
171 211 1.0
171 212 1.0
171 213 1.0
171 214 1.0
171 215 1.0
171 216 1.0
171 217 1.0
171 218 1.0
171 219 1.0
171 220 1.0
171 221 1.0
171 222 1.0
171 223 1.0
171 224 1.0
171 225 1.0
171 226 1.0
171 227 1.0
171 228 1.0
171 229 1.0
171 230 1.0
171 231 1.0
171 232 1.0
171 233 1.0
172 234 1.0
172 235 1.0
172 236 1.0
172 237 1.0
172 238 1.0
172 239 1.0
172 240 1.0
172 241 1.0
172 242 1.0
172 243 1.0
172 244 1.0
172 245 1.0
172 246 1.0
172 247 1.0
172 248 1.0
172 249 1.0
172 250 1.0
172 251 1.0
172 252 1.0
172 253 1.0
172 254 1.0
172 255 1.0
172 256 1.0
172 257 1.0
172 258 1.0
172 259 1.0
172 260 1.0
172 261 1.0
172 262 1.0
172 263 1.0
173 264 1.0
173 265 1.0
173 266 1.0
173 267 1.0
173 268 1.0
173 269 1.0
173 270 1.0
173 271 1.0
173 272 1.0
173 273 1.0
173 274 1.0
173 275 1.0
173 276 1.0
173 277 1.0
173 278 1.0
173 279 1.0
173 280 1.0
173 281 1.0
173 282 1.0
173 283 1.0
173 284 1.0
173 285 1.0
173 286 1.0
173 287 1.0
173 288 1.0
173 289 1.0
173 290 1.0
173 291 1.0
173 292 1.0
173 293 1.0
174 294 1.0
174 295 1.0
174 296 1.0
174 297 1.0
174 298 1.0
174 299 1.0
174 300 1.0
174 301 1.0
174 302 1.0
174 303 1.0
174 304 1.0
174 305 1.0
174 306 1.0
174 307 1.0
174 308 1.0
174 309 1.0
174 310 1.0
174 311 1.0
174 312 1.0
174 313 1.0
174 314 1.0
174 315 1.0
174 316 1.0
174 317 1.0
174 318 1.0
174 319 1.0
174 320 1.0
174 321 1.0
174 322 1.0
174 323 1.0
175 324 1.0
175 325 1.0
175 326 1.0
175 327 1.0
175 328 1.0
175 329 1.0
175 330 1.0
175 331 1.0
175 332 1.0
175 333 1.0
175 334 1.0
175 335 1.0
175 336 1.0
175 337 1.0
175 338 1.0
175 339 1.0
175 340 1.0
175 341 1.0
175 342 1.0
175 343 1.0
175 344 1.0
175 345 1.0
175 346 1.0
175 347 1.0
175 348 1.0
175 349 1.0
175 350 1.0
175 351 1.0
175 352 1.0
175 353 1.0
176 354 1.0
176 355 1.0
176 356 1.0
176 357 1.0
176 358 1.0
176 359 1.0
176 360 1.0
176 361 1.0
176 362 1.0
176 363 1.0
176 364 1.0
176 365 1.0
176 366 1.0
176 367 1.0
176 368 1.0
176 369 1.0
176 370 1.0
176 371 1.0
176 372 1.0
176 373 1.0
176 374 1.0
176 375 1.0
176 376 1.0
176 377 1.0
176 378 1.0
176 379 1.0
176 380 1.0
176 381 1.0
176 382 1.0
176 383 1.0
177 384 1.0
177 385 1.0
177 386 1.0
177 387 1.0
177 388 1.0
177 389 1.0
177 390 1.0
177 391 1.0
177 392 1.0
177 393 1.0
177 394 1.0
177 395 1.0
177 396 1.0
177 397 1.0
177 398 1.0
177 399 1.0
177 400 1.0
177 401 1.0
177 402 1.0
177 403 1.0
177 404 1.0
177 405 1.0
177 406 1.0
177 407 1.0
177 408 1.0
177 409 1.0
177 410 1.0
177 411 1.0
177 412 1.0
177 413 1.0
178 414 1.0
178 415 1.0
178 416 1.0
178 417 1.0
178 418 1.0
178 419 1.0
178 420 1.0
178 421 1.0
178 422 1.0
178 423 1.0
178 424 1.0
178 425 1.0
178 426 1.0
178 427 1.0
178 428 1.0
178 429 1.0
178 430 1.0
178 431 1.0
178 432 1.0
178 433 1.0
178 434 1.0
178 435 1.0
178 436 1.0
178 437 1.0
178 438 1.0
178 439 1.0
178 440 1.0
178 441 1.0
178 442 1.0
178 443 1.0
179 444 1.0
179 445 1.0
179 446 1.0
179 447 1.0
179 448 1.0
179 449 1.0
179 450 1.0
179 451 1.0
179 452 1.0
179 453 1.0
179 454 1.0
179 455 1.0
179 456 1.0
179 457 1.0
179 458 1.0
179 459 1.0
179 460 1.0
179 461 1.0
179 462 1.0
179 463 1.0
179 464 1.0
179 465 1.0
179 466 1.0
179 467 1.0
179 468 1.0
179 469 1.0
179 470 1.0
179 471 1.0
179 472 1.0
179 473 1.0
180 474 1.0
180 475 1.0
180 476 1.0
180 477 1.0
180 478 1.0
180 479 1.0
180 480 1.0
180 481 1.0
180 482 1.0
180 483 1.0
180 484 1.0
180 485 1.0
180 486 1.0
180 487 1.0
180 488 1.0
180 489 1.0
180 490 1.0
180 491 1.0
180 492 1.0
180 493 1.0
180 494 1.0
180 495 1.0
180 496 1.0
180 497 1.0
180 498 1.0
180 499 1.0
180 500 1.0
180 501 1.0
180 502 1.0
180 503 1.0
181 504 1.0
181 505 1.0
181 506 1.0
181 507 1.0
181 508 1.0
181 509 1.0
181 510 1.0
181 511 1.0
181 512 1.0
181 513 1.0
181 514 1.0
181 515 1.0
181 516 1.0
181 517 1.0
181 518 1.0
181 519 1.0
181 520 1.0
181 521 1.0
181 522 1.0
181 523 1.0
181 524 1.0
181 525 1.0
181 526 1.0
181 527 1.0
181 528 1.0
181 529 1.0
181 530 1.0
181 531 1.0
181 532 1.0
181 533 1.0
182 534 1.0
182 535 1.0
182 536 1.0
182 537 1.0
182 538 1.0
182 539 1.0
182 540 1.0
182 541 1.0
182 542 1.0
182 543 1.0
182 544 1.0
182 545 1.0
182 546 1.0
182 547 1.0
182 548 1.0
182 549 1.0
182 550 1.0
182 551 1.0
182 552 1.0
182 553 1.0
182 554 1.0
182 555 1.0
182 556 1.0
182 557 1.0
182 558 1.0
182 559 1.0
182 560 1.0
182 561 1.0
182 562 1.0
182 563 1.0
183 564 1.0
183 565 1.0
183 566 1.0
183 567 1.0
183 568 1.0
183 569 1.0
183 570 1.0
183 571 1.0
183 572 1.0
183 573 1.0
183 574 1.0
183 575 1.0
183 576 1.0
183 577 1.0
183 578 1.0
183 579 1.0
183 580 1.0
183 581 1.0
183 582 1.0
183 583 1.0
183 584 1.0
183 585 1.0
183 586 1.0
183 587 1.0
183 588 1.0
183 589 1.0
183 590 1.0
183 591 1.0
183 592 1.0
183 593 1.0
184 594 1.0
184 595 1.0
184 596 1.0
184 597 1.0
184 598 1.0
184 599 1.0
184 600 1.0
184 601 1.0
184 602 1.0
184 603 1.0
184 604 1.0
184 605 1.0
184 606 1.0
184 607 1.0
184 608 1.0
184 609 1.0
184 610 1.0
184 611 1.0
184 612 1.0
184 613 1.0
184 614 1.0
184 615 1.0
184 616 1.0
184 617 1.0
184 618 1.0
184 619 1.0
184 620 1.0
184 621 1.0
184 622 1.0
184 623 1.0
185 624 1.0
185 625 1.0
185 626 1.0
185 627 1.0
185 628 1.0
185 629 1.0
185 630 1.0
185 631 1.0
185 632 1.0
185 633 1.0
185 634 1.0
185 635 1.0
185 636 1.0
185 637 1.0
185 638 1.0
185 639 1.0
185 640 1.0
185 641 1.0
185 642 1.0
185 643 1.0
185 644 1.0
185 645 1.0
185 646 1.0
185 647 1.0
185 648 1.0
185 649 1.0
185 650 1.0
185 651 1.0
185 652 1.0
185 653 1.0
186 654 1.0
186 655 1.0
186 656 1.0
186 657 1.0
186 658 1.0
186 659 1.0
186 660 1.0
186 661 1.0
186 662 1.0
186 663 1.0
186 664 1.0
186 665 1.0
186 666 1.0
186 667 1.0
186 668 1.0
186 669 1.0
186 670 1.0
186 671 1.0
186 672 1.0
186 673 1.0
186 674 1.0
186 675 1.0
186 676 1.0
186 677 1.0
186 678 1.0
186 679 1.0
186 680 1.0
186 681 1.0
186 682 1.0
186 683 1.0
187 684 1.0
187 685 1.0
187 686 1.0
187 687 1.0
187 688 1.0
187 689 1.0
187 690 1.0
187 691 1.0
187 692 1.0
187 693 1.0
187 694 1.0
187 695 1.0
187 696 1.0
187 697 1.0
187 698 1.0
187 699 1.0
187 700 1.0
187 701 1.0
187 702 1.0
187 703 1.0
187 704 1.0
187 705 1.0
187 706 1.0
187 707 1.0
187 708 1.0
187 709 1.0
187 710 1.0
187 711 1.0
187 712 1.0
187 713 1.0
188 714 1.0
188 715 1.0
188 716 1.0
188 717 1.0
188 718 1.0
188 719 1.0
188 720 1.0
188 721 1.0
188 722 1.0
188 723 1.0
188 724 1.0
188 725 1.0
188 726 1.0
188 727 1.0
188 728 1.0
188 729 1.0
188 730 1.0
188 731 1.0
188 732 1.0
188 733 1.0
188 734 1.0
188 735 1.0
188 736 1.0
188 737 1.0
188 738 1.0
188 739 1.0
188 740 1.0
188 741 1.0
188 742 1.0
188 743 1.0
189 744 1.0
189 745 1.0
189 746 1.0
189 747 1.0
189 748 1.0
189 749 1.0
189 750 1.0
189 751 1.0
189 752 1.0
189 753 1.0
189 754 1.0
189 755 1.0
189 756 1.0
189 757 1.0
189 758 1.0
189 759 1.0
189 760 1.0
189 761 1.0
189 762 1.0
189 763 1.0
189 764 1.0
189 765 1.0
189 766 1.0
189 767 1.0
189 768 1.0
189 769 1.0
189 770 1.0
189 771 1.0
189 772 1.0
189 773 1.0
190 774 1.0
190 775 1.0
190 776 1.0
190 777 1.0
190 778 1.0
190 779 1.0
190 780 1.0
190 781 1.0
190 782 1.0
190 783 1.0
190 784 1.0
190 785 1.0
190 786 1.0
190 787 1.0
190 788 1.0
190 789 1.0
190 790 1.0
190 791 1.0
190 792 1.0
190 793 1.0
190 794 1.0
190 795 1.0
190 796 1.0
190 797 1.0
190 798 1.0
190 799 1.0
190 800 1.0
190 801 1.0
190 802 1.0
190 803 1.0
191 804 1.0
191 805 1.0
191 806 1.0
191 807 1.0
191 808 1.0
191 809 1.0
191 810 1.0
191 811 1.0
191 812 1.0
191 813 1.0
191 814 1.0
191 815 1.0
191 816 1.0
191 817 1.0
191 818 1.0
191 819 1.0
191 820 1.0
191 821 1.0
191 822 1.0
191 823 1.0
191 824 1.0
191 825 1.0
191 826 1.0
191 827 1.0
191 828 1.0
191 829 1.0
191 830 1.0
191 831 1.0
191 832 1.0
191 833 1.0
192 834 1.0
192 835 1.0
192 836 1.0
192 837 1.0
192 838 1.0
192 839 1.0
192 840 1.0
192 841 1.0
192 842 1.0
192 843 1.0
192 844 1.0
192 845 1.0
192 846 1.0
192 847 1.0
192 848 1.0
192 849 1.0
192 850 1.0
192 851 1.0
192 852 1.0
192 853 1.0
192 854 1.0
192 855 1.0
192 856 1.0
192 857 1.0
192 858 1.0
192 859 1.0
192 860 1.0
192 861 1.0
192 862 1.0
192 863 1.0
193 864 1.0
193 865 1.0
193 866 1.0
193 867 1.0
193 868 1.0
193 869 1.0
193 870 1.0
193 871 1.0
193 872 1.0
193 873 1.0
193 874 1.0
193 875 1.0
193 876 1.0
193 877 1.0
193 878 1.0
193 879 1.0
193 880 1.0
193 881 1.0
193 882 1.0
193 883 1.0
193 884 1.0
193 885 1.0
193 886 1.0
193 887 1.0
193 888 1.0
193 889 1.0
193 890 1.0
193 891 1.0
193 892 1.0
193 893 1.0
194 2 -1.0
194 3 1.0
195 2 -1.0
195 4 1.0
196 2 -1.0
196 5 1.0
197 6 -1.0
197 7 1.0
198 6 -1.0
198 8 1.0
199 6 -1.0
199 9 1.0
200 10 -1.0
200 11 1.0
201 12 -1.0
201 13 1.0
202 14 -1.0
202 15 1.0
203 14 -1.0
203 16 1.0
204 14 -1.0
204 17 1.0
205 18 -1.0
205 19 1.0
206 18 -1.0
206 20 1.0
207 18 -1.0
207 21 1.0
208 22 -1.0
208 23 1.0
209 22 -1.0
209 24 1.0
210 22 -1.0
210 25 1.0
211 119 -1.0
212 120 -1.0
213 124 -1.0
214 121 -1.0
215 125 -1.0
216 126 -1.0
217 127 -1.0
218 122 -1.0
219 123 -1.0
220 132 -1.0
221 136 -1.0
222 128 -1.0
223 137 -1.0
224 129 -1.0
225 141 -1.0
226 133 -1.0
227 138 -1.0
228 134 -1.0
229 130 -1.0
230 139 -1.0
231 142 -1.0
232 143 -1.0
233 131 -1.0
234 135 -1.0
235 140 -1.0
1.79769313486232E+308 # value for infinity
0.0 # default left-hand-side value
82 # number of non-default left-hand-sides
76 1.0
77 10.0
78 -10.0
80 10.0
81 -10.0
82 0.5
91 0.6
94 -1.79769313486232E+308
95 -1.79769313486232E+308
96 -1.79769313486232E+308
97 -1.79769313486232E+308
98 -1.79769313486232E+308
99 -1.79769313486232E+308
100 -1.79769313486232E+308
101 -1.79769313486232E+308
102 -1.79769313486232E+308
103 -1.79769313486232E+308
104 -1.79769313486232E+308
105 -1.79769313486232E+308
106 -1.79769313486232E+308
107 -1.79769313486232E+308
108 -1.79769313486232E+308
109 -1.79769313486232E+308
110 -1.79769313486232E+308
111 -1.79769313486232E+308
112 -1.79769313486232E+308
113 -1.79769313486232E+308
114 -1.79769313486232E+308
115 -1.79769313486232E+308
116 -1.79769313486232E+308
117 -1.79769313486232E+308
118 -1.79769313486232E+308
119 -1.79769313486232E+308
120 -1.79769313486232E+308
121 -1.79769313486232E+308
122 -1.79769313486232E+308
123 -1.79769313486232E+308
124 -1.79769313486232E+308
125 -1.79769313486232E+308
126 -1.79769313486232E+308
127 -1.79769313486232E+308
128 -1.79769313486232E+308
129 -1.79769313486232E+308
130 -1.79769313486232E+308
131 -1.79769313486232E+308
132 -1.79769313486232E+308
133 -1.79769313486232E+308
134 -1.79769313486232E+308
135 -1.79769313486232E+308
136 -1.79769313486232E+308
137 -1.79769313486232E+308
138 -1.79769313486232E+308
139 -1.79769313486232E+308
140 -1.79769313486232E+308
141 -1.79769313486232E+308
142 -1.79769313486232E+308
143 -1.79769313486232E+308
169 1.0
170 1.0
171 1.0
172 1.0
173 1.0
174 1.0
175 1.0
176 1.0
177 1.0
178 1.0
179 1.0
180 1.0
181 1.0
182 1.0
183 1.0
184 1.0
185 1.0
186 1.0
187 1.0
188 1.0
189 1.0
190 1.0
191 1.0
192 1.0
193 1.0
0.0 # default right-hand-side value
32 # number of non-default right-hand-sides
76 1.0
77 10.0
78 -10.0
80 10.0
81 -10.0
82 0.5
91 0.6
169 1.0
170 1.0
171 1.0
172 1.0
173 1.0
174 1.0
175 1.0
176 1.0
177 1.0
178 1.0
179 1.0
180 1.0
181 1.0
182 1.0
183 1.0
184 1.0
185 1.0
186 1.0
187 1.0
188 1.0
189 1.0
190 1.0
191 1.0
192 1.0
193 1.0
0.0 # default variable lower bound value
143 # number of non-default variable lower bounds
1 0.1
2 0.1
3 0.1
4 0.1
5 0.1
6 0.1
7 0.1
8 0.1
9 0.1
10 0.1
11 0.1
12 0.1
13 0.1
14 0.1
15 0.1
16 0.1
17 0.1
18 0.1
19 0.1
20 0.1
21 0.1
22 0.1
23 0.1
24 0.1
25 0.1
26 -0.35
27 -0.35
28 -1.79769313486232E+308
29 -0.35
30 -0.35
31 -1.79769313486232E+308
32 -1.79769313486232E+308
33 -1.79769313486232E+308
34 -1.79769313486232E+308
35 -1.79769313486232E+308
36 -1.79769313486232E+308
37 -1.79769313486232E+308
38 -1.79769313486232E+308
39 -1.79769313486232E+308
40 -1.79769313486232E+308
41 -1.79769313486232E+308
42 -1.79769313486232E+308
43 -1.79769313486232E+308
44 -1.79769313486232E+308
45 -1.79769313486232E+308
46 -1.79769313486232E+308
47 -1.79769313486232E+308
48 -1.79769313486232E+308
49 -1.79769313486232E+308
50 -1.79769313486232E+308
51 -1.79769313486232E+308
52 -1.79769313486232E+308
53 -1.79769313486232E+308
54 -1.79769313486232E+308
55 -1.79769313486232E+308
56 -1.79769313486232E+308
57 -1.79769313486232E+308
58 -1.79769313486232E+308
59 -1.79769313486232E+308
60 -1.79769313486232E+308
61 -1.79769313486232E+308
62 -1.79769313486232E+308
63 -1.79769313486232E+308
64 -1.79769313486232E+308
65 -1.79769313486232E+308
66 -1.79769313486232E+308
67 -1.79769313486232E+308
68 -1.79769313486232E+308
69 -1.79769313486232E+308
70 -1.79769313486232E+308
71 -1.79769313486232E+308
72 -1.79769313486232E+308
73 -1.79769313486232E+308
74 -1.79769313486232E+308
75 -1.79769313486232E+308
76 -1.79769313486232E+308
77 -1.79769313486232E+308
78 -1.79769313486232E+308
79 -1.79769313486232E+308
80 -1.79769313486232E+308
81 -1.79769313486232E+308
82 -1.79769313486232E+308
83 -1.79769313486232E+308
84 -1.79769313486232E+308
85 -1.79769313486232E+308
86 -1.79769313486232E+308
87 -1.79769313486232E+308
88 -1.79769313486232E+308
89 -1.79769313486232E+308
90 -1.79769313486232E+308
91 -1.79769313486232E+308
92 -1.79769313486232E+308
93 -1.79769313486232E+308
94 -1.79769313486232E+308
95 -1.79769313486232E+308
96 -1.79769313486232E+308
97 -1.79769313486232E+308
98 -1.79769313486232E+308
99 -1.79769313486232E+308
100 -1.79769313486232E+308
101 -1.79769313486232E+308
102 -1.79769313486232E+308
103 -1.79769313486232E+308
104 -1.79769313486232E+308
105 -1.79769313486232E+308
106 -1.79769313486232E+308
107 -1.79769313486232E+308
108 -1.79769313486232E+308
109 -1.79769313486232E+308
110 -1.79769313486232E+308
111 -1.79769313486232E+308
112 -1.79769313486232E+308
113 -1.79769313486232E+308
114 -1.79769313486232E+308
115 -1.79769313486232E+308
116 -1.79769313486232E+308
117 -1.79769313486232E+308
118 -1.79769313486232E+308
119 -1.79769313486232E+308
120 -1.79769313486232E+308
121 -1.79769313486232E+308
122 -1.79769313486232E+308
123 -1.79769313486232E+308
124 -1.79769313486232E+308
125 -1.79769313486232E+308
126 -1.79769313486232E+308
127 -1.79769313486232E+308
128 -1.79769313486232E+308
129 -1.79769313486232E+308
130 -1.79769313486232E+308
131 -1.79769313486232E+308
132 -1.79769313486232E+308
133 -1.79769313486232E+308
134 -1.79769313486232E+308
135 -1.79769313486232E+308
136 -1.79769313486232E+308
137 -1.79769313486232E+308
138 -1.79769313486232E+308
139 -1.79769313486232E+308
140 -1.79769313486232E+308
141 -1.79769313486232E+308
142 -1.79769313486232E+308
143 -1.79769313486232E+308
1.0 # default variable upper bound value
143 # number of non-default variable upper bounds
1 3.4
2 3.4
3 3.4
4 3.4
5 3.4
6 3.4
7 3.4
8 3.4
9 3.4
10 3.4
11 3.4
12 3.4
13 3.4
14 3.4
15 3.4
16 3.4
17 3.4
18 3.4
19 3.4
20 3.4
21 3.4
22 3.4
23 3.4
24 3.4
25 3.4
26 0.35
27 0.35
28 1.79769313486232E+308
29 0.35
30 0.35
31 1.79769313486232E+308
32 1.79769313486232E+308
33 1.79769313486232E+308
34 1.79769313486232E+308
35 1.79769313486232E+308
36 1.79769313486232E+308
37 1.79769313486232E+308
38 1.79769313486232E+308
39 1.79769313486232E+308
40 1.79769313486232E+308
41 1.79769313486232E+308
42 1.79769313486232E+308
43 1.79769313486232E+308
44 1.79769313486232E+308
45 1.79769313486232E+308
46 1.79769313486232E+308
47 1.79769313486232E+308
48 1.79769313486232E+308
49 1.79769313486232E+308
50 1.79769313486232E+308
51 1.79769313486232E+308
52 1.79769313486232E+308
53 1.79769313486232E+308
54 1.79769313486232E+308
55 1.79769313486232E+308
56 1.79769313486232E+308
57 1.79769313486232E+308
58 1.79769313486232E+308
59 1.79769313486232E+308
60 1.79769313486232E+308
61 1.79769313486232E+308
62 1.79769313486232E+308
63 1.79769313486232E+308
64 1.79769313486232E+308
65 1.79769313486232E+308
66 1.79769313486232E+308
67 1.79769313486232E+308
68 1.79769313486232E+308
69 1.79769313486232E+308
70 1.79769313486232E+308
71 1.79769313486232E+308
72 1.79769313486232E+308
73 1.79769313486232E+308
74 1.79769313486232E+308
75 1.79769313486232E+308
76 1.79769313486232E+308
77 1.79769313486232E+308
78 1.79769313486232E+308
79 1.79769313486232E+308
80 1.79769313486232E+308
81 1.79769313486232E+308
82 1.79769313486232E+308
83 1.79769313486232E+308
84 1.79769313486232E+308
85 1.79769313486232E+308
86 1.79769313486232E+308
87 1.79769313486232E+308
88 1.79769313486232E+308
89 1.79769313486232E+308
90 1.79769313486232E+308
91 1.79769313486232E+308
92 1.79769313486232E+308
93 1.79769313486232E+308
94 1.79769313486232E+308
95 1.79769313486232E+308
96 1.79769313486232E+308
97 1.79769313486232E+308
98 1.79769313486232E+308
99 1.79769313486232E+308
100 1.79769313486232E+308
101 1.79769313486232E+308
102 1.79769313486232E+308
103 1.79769313486232E+308
104 1.79769313486232E+308
105 1.79769313486232E+308
106 1.79769313486232E+308
107 1.79769313486232E+308
108 1.79769313486232E+308
109 1.79769313486232E+308
110 1.79769313486232E+308
111 1.79769313486232E+308
112 1.79769313486232E+308
113 1.79769313486232E+308
114 1.79769313486232E+308
115 1.79769313486232E+308
116 1.79769313486232E+308
117 1.79769313486232E+308
118 1.79769313486232E+308
119 1.79769313486232E+308
120 1.79769313486232E+308
121 1.79769313486232E+308
122 1.79769313486232E+308
123 1.79769313486232E+308
124 1.79769313486232E+308
125 1.79769313486232E+308
126 1.79769313486232E+308
127 1.79769313486232E+308
128 1.79769313486232E+308
129 1.79769313486232E+308
130 1.79769313486232E+308
131 1.79769313486232E+308
132 1.79769313486232E+308
133 1.79769313486232E+308
134 1.79769313486232E+308
135 1.79769313486232E+308
136 1.79769313486232E+308
137 1.79769313486232E+308
138 1.79769313486232E+308
139 1.79769313486232E+308
140 1.79769313486232E+308
141 1.79769313486232E+308
142 1.79769313486232E+308
143 1.79769313486232E+308
1 # default variable type
143 # number of non-default variable types
1 1
2 1
3 1
4 1
5 1
6 1
7 1
8 1
9 1
10 1
11 1
12 1
13 1
14 1
15 1
16 1
17 1
18 1
19 1
20 1
21 1
22 1
23 1
24 1
25 1
26 1
27 1
28 1
29 1
30 1
31 1
32 1
33 1
34 1
35 1
36 1
37 1
38 1
39 1
40 1
41 1
42 1
43 1
44 1
45 1
46 1
47 1
48 1
49 1
50 1
51 1
52 1
53 1
54 1
55 1
56 1
57 1
58 1
59 1
60 1
61 1
62 1
63 1
64 1
65 1
66 1
67 1
68 1
69 1
70 1
71 1
72 1
73 1
74 1
75 1
76 1
77 1
78 1
79 1
80 1
81 1
82 1
83 1
84 1
85 1
86 1
87 1
88 1
89 1
90 1
91 1
92 1
93 1
94 1
95 1
96 1
97 1
98 1
99 1
100 1
101 1
102 1
103 1
104 1
105 1
106 1
107 1
108 1
109 1
110 1
111 1
112 1
113 1
114 1
115 1
116 1
117 1
118 1
119 1
120 1
121 1
122 1
123 1
124 1
125 1
126 1
127 1
128 1
129 1
130 1
131 1
132 1
133 1
134 1
135 1
136 1
137 1
138 1
139 1
140 1
141 1
142 1
143 1
0.0 # default variable primal value in starting point
25 # number of non-default variable primal values in starting point
1 0.1
2 0.1
3 0.1
4 0.1
5 0.1
6 0.1
7 0.1
8 0.1
9 0.1
10 0.1
11 0.1
12 0.1
13 0.1
14 0.1
15 0.1
16 0.1
17 0.1
18 0.1
19 0.1
20 0.1
21 0.1
22 0.1
23 0.1
24 0.1
25 0.1
0.0 # default constraint dual value in starting point
0 # number of non-default constraint dual values in starting point
0.0 # default variable bound dual value in starting point
0 # number of non-default variable bound dual values in starting point
0 # number of non-default variable names
0 # number of non-default constraint names
